c Result of efficient AIG-to-CNF conversion using package CNF
p cnf 383 1117
2 -296 380 -381 0
-2 296 0
-2 -380 0
-2 381 0
3 379 -382 0
-3 -379 0
-3 382 0
4 382 -5 0
4 -381 -382 -91 0
-4 381 -382 0
-4 382 5 0
-4 -382 91 0
5 291 292 6 -7 0
5 -291 -292 6 -7 0
-5 7 0
-5 -291 292 0
-5 -6 0
-5 291 -292 0
-6 -293 -294 0
-6 293 294 0
6 293 -294 0
6 -293 294 0
7 286 287 8 -9 0
7 -286 -287 8 -9 0
-7 9 0
-7 -286 287 0
-7 -8 0
-7 286 -287 0
-8 -289 -290 0
-8 289 290 0
8 289 -290 0
8 -289 290 0
9 281 282 10 -11 0
9 -281 -282 10 -11 0
-9 11 0
-9 -281 282 0
-9 -10 0
-9 281 -282 0
-10 -283 -284 0
-10 283 284 0
10 283 -284 0
10 -283 284 0
11 276 277 12 -13 0
11 -276 -277 12 -13 0
-11 13 0
-11 -276 277 0
-11 -12 0
-11 276 -277 0
-12 -279 -280 0
-12 279 280 0
12 279 -280 0
12 -279 280 0
13 271 272 14 -15 0
13 -271 -272 14 -15 0
-13 15 0
-13 -271 272 0
-13 -14 0
-13 271 -272 0
-14 -273 -274 0
-14 273 274 0
14 273 -274 0
14 -273 274 0
15 267 268 16 -17 0
15 -267 -268 16 -17 0
-15 17 0
-15 -267 268 0
-15 -16 0
-15 267 -268 0
-16 -269 -270 0
-16 269 270 0
16 269 -270 0
16 -269 270 0
17 263 264 18 -19 0
17 -263 -264 18 -19 0
-17 19 0
-17 -263 264 0
-17 -18 0
-17 263 -264 0
-18 -265 -266 0
-18 265 266 0
18 265 -266 0
18 -265 266 0
19 258 260 20 -21 0
19 -258 -260 20 -21 0
-19 21 0
-19 -258 260 0
-19 -20 0
-19 258 -260 0
-20 -261 -262 0
-20 261 262 0
20 261 -262 0
20 -261 262 0
21 254 255 22 -23 0
21 -254 -255 22 -23 0
-21 23 0
-21 -254 255 0
-21 -22 0
-21 254 -255 0
-22 -256 -257 0
-22 256 257 0
22 256 -257 0
22 -256 257 0
23 250 251 24 -25 0
23 -250 -251 24 -25 0
-23 25 0
-23 -250 251 0
-23 -24 0
-23 250 -251 0
-24 -252 -253 0
-24 252 253 0
24 252 -253 0
24 -252 253 0
25 245 246 26 -27 0
25 -245 -246 26 -27 0
-25 27 0
-25 -245 246 0
-25 -26 0
-25 245 -246 0
-26 -247 -248 0
-26 247 248 0
26 247 -248 0
26 -247 248 0
27 239 240 28 -29 0
27 -239 -240 28 -29 0
-27 29 0
-27 -239 240 0
-27 -28 0
-27 239 -240 0
-28 -241 -242 0
-28 241 242 0
28 241 -242 0
28 -241 242 0
29 234 235 30 -31 0
29 -234 -235 30 -31 0
-29 31 0
-29 -234 235 0
-29 -30 0
-29 234 -235 0
-30 -236 -237 0
-30 236 237 0
30 236 -237 0
30 -236 237 0
31 230 231 32 -33 0
31 -230 -231 32 -33 0
-31 33 0
-31 -230 231 0
-31 -32 0
-31 230 -231 0
-32 -232 -233 0
-32 232 233 0
32 232 -233 0
32 -232 233 0
33 226 227 34 -35 0
33 -226 -227 34 -35 0
-33 35 0
-33 -226 227 0
-33 -34 0
-33 226 -227 0
-34 -228 -229 0
-34 228 229 0
34 228 -229 0
34 -228 229 0
35 220 222 36 -37 0
35 -220 -222 36 -37 0
-35 37 0
-35 -220 222 0
-35 -36 0
-35 220 -222 0
-36 -223 -224 0
-36 223 224 0
36 223 -224 0
36 -223 224 0
37 216 217 38 -39 0
37 -216 -217 38 -39 0
-37 39 0
-37 -216 217 0
-37 -38 0
-37 216 -217 0
-38 -218 -219 0
-38 218 219 0
38 218 -219 0
38 -218 219 0
39 -225 -238 -243 -40 0
-39 40 0
-39 225 0
-39 243 0
-39 238 0
40 219 243 249 -41 0
40 -219 -243 -249 -41 0
-40 -243 249 0
-40 219 -249 0
-40 41 0
-40 -219 243 0
41 219 224 227 -42 0
41 -219 -224 -227 -42 0
-41 -224 227 0
-41 219 -227 0
-41 42 0
-41 -219 224 0
42 227 231 235 -43 0
42 -227 -231 -235 -43 0
-42 -231 235 0
-42 227 -235 0
-42 43 0
-42 -227 231 0
43 235 240 246 -44 0
43 -235 -240 -246 -44 0
-43 -240 246 0
-43 235 -246 0
-43 44 0
-43 -235 240 0
44 246 251 257 -45 0
44 -246 -251 -257 -45 0
-44 -251 257 0
-44 246 -257 0
-44 45 0
-44 -246 251 0
45 257 262 264 -46 0
45 -257 -262 -264 -46 0
-45 -262 264 0
-45 257 -264 0
-45 46 0
-45 -257 262 0
46 264 268 274 -47 0
46 -264 -268 -274 -47 0
-46 -268 274 0
-46 264 -274 0
-46 47 0
-46 -264 268 0
47 274 277 282 -48 0
47 -274 -277 -282 -48 0
-47 -277 282 0
-47 274 -282 0
-47 48 0
-47 -274 277 0
48 282 287 292 -49 0
48 -282 -287 -292 -49 0
-48 -287 292 0
-48 282 -292 0
-48 49 0
-48 -282 287 0
49 292 -50 -51 -52 0
49 -292 50 51 -52 0
-49 50 -51 0
-49 292 51 0
-49 52 0
-49 -292 -50 0
-50 -275 -282 0
-50 275 282 0
50 275 -282 0
50 -275 282 0
-51 -278 -284 0
-51 278 284 0
51 278 -284 0
51 -278 284 0
52 51 53 -54 0
52 -51 -53 -54 0
-52 54 0
-52 51 -53 0
-52 -51 53 0
-53 -285 -292 0
-53 285 292 0
53 285 -292 0
53 -285 292 0
54 288 294 53 -55 0
54 -288 -294 53 -55 0
-54 55 0
-54 -288 294 0
-54 -53 0
-54 288 -294 0
55 214 215 221 -56 0
-55 56 0
-55 -221 0
-55 -214 0
-55 -215 0
56 221 244 259 -57 0
56 -221 -244 -259 -57 0
-56 -244 259 0
-56 221 -259 0
-56 57 0
-56 -221 244 0
57 217 222 259 -58 0
57 -217 -222 -259 -58 0
-57 -222 259 0
-57 217 -259 0
-57 58 0
-57 -217 222 0
58 222 229 233 -59 0
58 -222 -229 -233 -59 0
-58 -229 233 0
-58 222 -233 0
-58 59 0
-58 -222 229 0
59 233 237 242 -60 0
59 -233 -237 -242 -60 0
-59 -237 242 0
-59 233 -242 0
-59 60 0
-59 -233 237 0
60 242 248 253 -61 0
60 -242 -248 -253 -61 0
-60 -248 253 0
-60 242 -253 0
-60 61 0
-60 -242 248 0
61 253 255 260 -62 0
61 -253 -255 -260 -62 0
-61 -255 260 0
-61 253 -260 0
-61 62 0
-61 -253 255 0
62 260 266 270 -63 0
62 -260 -266 -270 -63 0
-62 -266 270 0
-62 260 -270 0
-62 63 0
-62 -260 266 0
63 270 272 280 -64 0
63 -270 -272 -280 -64 0
-63 -272 280 0
-63 270 -280 0
-63 64 0
-63 -270 272 0
64 280 284 290 -65 0
64 -280 -284 -290 -65 0
-64 -284 290 0
-64 280 -290 0
-64 65 0
-64 -280 284 0
65 290 294 -66 0
-65 66 0
-65 -294 0
-65 -290 0
66 -67 -68 -69 70 0
-66 -70 0
-66 69 0
-66 67 0
-66 68 0
-67 -251 -253 0
-67 251 253 0
67 251 -253 0
67 -251 253 0
-68 -246 -248 0
-68 246 248 0
68 246 -248 0
68 -246 248 0
-69 -240 -242 0
-69 240 242 0
69 240 -242 0
69 -240 242 0
-70 -69 -71 -72 73 0
-70 69 71 72 73 0
70 71 -72 0
70 -69 72 0
70 -73 0
70 69 -71 0
-71 -235 -237 0
-71 235 237 0
71 235 -237 0
71 -235 237 0
-72 -231 -233 0
-72 231 233 0
72 231 -233 0
72 -231 233 0
-73 -72 -74 -75 76 0
-73 72 74 75 76 0
73 74 -75 0
73 -72 75 0
73 -76 0
73 72 -74 0
-74 -227 -229 0
-74 227 229 0
74 227 -229 0
74 -227 229 0
-75 -222 -224 0
-75 222 224 0
75 222 -224 0
75 -222 224 0
-76 -75 -77 -78 79 0
-76 75 77 78 79 0
76 77 -78 0
76 -75 78 0
76 -79 0
76 75 -77 0
-77 -217 -219 0
-77 217 219 0
77 217 -219 0
77 -217 219 0
-78 -292 -294 0
-78 292 294 0
78 292 -294 0
78 -292 294 0
-79 -78 -80 -81 82 0
-79 78 80 81 82 0
79 80 -81 0
79 -78 81 0
79 -82 0
79 78 -80 0
-80 -287 -290 0
-80 287 290 0
80 287 -290 0
80 -287 290 0
-81 -282 -284 0
-81 282 284 0
81 282 -284 0
81 -282 284 0
-82 -81 -83 -84 85 0
-82 81 83 84 85 0
82 83 -84 0
82 -81 84 0
82 -85 0
82 81 -83 0
-83 -277 -280 0
-83 277 280 0
83 277 -280 0
83 -277 280 0
-84 -272 -274 0
-84 272 274 0
84 272 -274 0
84 -272 274 0
-85 -84 -86 -87 88 0
-85 84 86 87 88 0
85 86 -87 0
85 -84 87 0
85 -88 0
85 84 -86 0
-86 -268 -270 0
-86 268 270 0
86 268 -270 0
86 -268 270 0
-87 -264 -266 0
-87 264 266 0
87 264 -266 0
87 -264 266 0
-88 87 89 90 0
-88 -87 -89 -90 0
88 89 -90 0
88 -87 90 0
88 87 -89 0
-89 -260 -262 0
-89 260 262 0
89 260 -262 0
89 -260 262 0
-90 -255 -257 0
-90 255 257 0
90 255 -257 0
90 -255 257 0
91 358 364 -92 204 0
91 -358 -364 -92 204 0
-91 -204 0
-91 -358 364 0
-91 92 0
-91 358 -364 0
92 368 374 93 -94 0
92 -368 -374 93 -94 0
-92 94 0
-92 -368 374 0
-92 -93 0
-92 368 -374 0
-93 -361 -366 0
-93 361 366 0
93 361 -366 0
93 -361 366 0
94 298 379 95 -96 0
94 -298 -379 95 -96 0
-94 96 0
-94 -298 379 0
-94 -95 0
-94 298 -379 0
-95 -371 -376 0
-95 371 376 0
95 371 -376 0
95 -371 376 0
96 -328 330 -97 -98 0
96 328 -330 -97 -98 0
-96 98 0
-96 328 330 0
-96 97 0
-96 -328 -330 0
-97 -333 -335 0
-97 333 335 0
97 333 -335 0
97 -333 335 0
98 -317 319 -99 -100 0
98 317 -319 -99 -100 0
-98 100 0
-98 317 319 0
-98 99 0
-98 -317 -319 0
-99 -322 -324 0
-99 322 324 0
99 322 -324 0
99 -322 324 0
100 -313 315 -101 -102 0
100 313 -315 -101 -102 0
-100 102 0
-100 313 315 0
-100 101 0
-100 -313 -315 0
-101 -309 -311 0
-101 309 311 0
101 309 -311 0
101 -309 311 0
102 -303 306 -103 -104 0
102 303 -306 -103 -104 0
-102 104 0
-102 303 306 0
-102 103 0
-102 -303 -306 0
-103 -299 -301 0
-103 299 301 0
103 299 -301 0
103 -299 301 0
104 -374 376 -105 -106 0
104 374 -376 -105 -106 0
-104 106 0
-104 374 376 0
-104 105 0
-104 -374 -376 0
-105 -369 -372 0
-105 369 372 0
105 369 -372 0
105 -369 372 0
106 -364 366 -107 -108 0
106 364 -366 -107 -108 0
-106 108 0
-106 364 366 0
-106 107 0
-106 -364 -366 0
-107 -359 -362 0
-107 359 362 0
107 359 -362 0
107 -359 362 0
108 -350 352 -109 -110 0
108 350 -352 -109 -110 0
-108 110 0
-108 350 352 0
-108 109 0
-108 -350 -352 0
-109 -354 -356 0
-109 354 356 0
109 354 -356 0
109 -354 356 0
110 -341 344 -111 -112 0
110 341 -344 -111 -112 0
-110 112 0
-110 341 344 0
-110 111 0
-110 -341 -344 0
-111 -346 -348 0
-111 346 348 0
111 346 -348 0
111 -346 348 0
112 -216 -113 -114 -117 0
112 216 -113 114 -117 0
-112 113 0
-112 -216 114 0
-112 117 0
-112 216 -114 0
-113 -337 -339 0
-113 337 339 0
113 337 -339 0
113 -337 339 0
-114 115 -116 0
-114 299 115 0
114 -115 0
114 -299 116 0
115 215 -297 -298 0
-115 298 0
-115 297 0
-115 -215 0
116 215 -298 0
-116 -215 0
-116 298 0
117 218 118 119 -121 0
117 -218 -118 119 -121 0
-117 121 0
-117 -218 118 0
-117 -119 0
-117 218 -118 0
118 -301 115 0
118 115 -116 0
-118 -115 0
-118 301 116 0
-119 220 120 0
-119 -220 -120 0
119 -220 120 0
119 220 -120 0
-120 -215 -221 0
-120 215 303 0
-120 -215 114 0
120 215 -303 0
120 -215 221 -114 0
121 226 122 124 -127 0
121 -226 122 -124 -127 0
-121 127 0
-121 -226 124 0
-121 -122 0
-121 226 -124 0
-122 -223 -123 0
-122 223 123 0
122 223 -123 0
122 -223 123 0
123 -215 -221 0
123 215 -306 0
123 -215 -118 0
-123 215 306 0
-123 -215 221 118 0
-124 125 -126 0
-124 309 125 0
124 -125 0
124 -309 126 0
125 -215 298 -308 0
-125 215 0
-125 -298 0
-125 308 0
126 -215 298 0
-126 215 0
-126 -298 0
127 228 128 129 -131 0
127 -228 -128 129 -131 0
-127 131 0
-127 -228 128 0
-127 -129 0
-127 228 -128 0
128 -311 125 0
128 125 -126 0
-128 -125 0
-128 311 126 0
-129 230 130 0
-129 -230 -130 0
129 -230 130 0
129 230 -130 0
-130 215 -221 0
-130 -215 313 0
-130 215 124 0
130 -215 -313 0
130 215 221 -124 0
131 232 132 -133 135 0
131 -232 -132 -133 135 0
-131 -135 0
-131 -232 132 0
-131 133 0
-131 232 -132 0
132 215 -128 0
132 -215 -315 0
132 215 -221 0
-132 -215 315 0
-132 215 221 128 0
133 234 -134 0
133 -234 134 0
-133 -234 -134 0
-133 234 134 0
134 -215 313 315 0
134 -215 315 317 0
-134 215 0
-134 -315 0
-134 -313 -317 0
-135 236 136 137 144 0
-135 -236 -136 137 144 0
135 -144 0
135 -236 136 0
135 -137 0
135 236 -136 0
136 -215 -313 -319 0
136 -215 -313 -315 0
-136 215 0
-136 313 0
-136 315 319 0
-137 239 138 0
-137 -239 -138 0
137 -239 138 0
137 239 -138 0
-138 322 139 0
-138 139 -142 143 0
138 -139 0
138 -322 142 0
138 -322 -143 0
139 -321 -140 141 0
-139 321 0
-139 140 0
-139 -141 0
140 -215 -313 -317 0
140 -215 -313 -315 0
-140 215 0
-140 313 0
-140 315 317 0
141 -298 315 319 0
-141 298 0
-141 -319 0
-141 -315 0
142 -215 313 315 0
142 -215 315 319 0
-142 215 0
-142 -315 0
-142 -313 -319 0
143 -298 -313 -317 0
-143 298 0
-143 313 0
-143 317 0
-144 241 145 147 151 0
-144 -241 -145 147 151 0
144 -151 0
144 -241 145 0
144 -147 0
144 241 -145 0
145 -324 146 0
145 -140 141 146 0
-145 -146 0
-145 324 140 0
-145 324 -141 0
146 -321 -142 143 0
-146 321 0
-146 142 0
-146 -143 0
-147 245 148 0
-147 -245 -148 0
147 -245 148 0
147 245 -148 0
-148 149 -150 0
-148 244 328 0
-148 244 -150 0
-148 328 149 0
148 -244 -149 0
148 -328 150 0
149 243 -140 0
-149 -243 0
-149 140 0
150 243 -142 0
-150 -243 0
-150 142 0
-151 247 152 153 157 0
-151 -247 -152 153 157 0
151 -157 0
151 -247 152 0
151 -153 0
151 247 -152 0
152 -330 150 0
152 244 -149 0
152 244 -330 0
152 -149 150 0
-152 -244 -150 0
-152 330 149 0
-153 250 154 0
-153 -250 -154 0
153 -250 154 0
153 250 -154 0
-154 155 -156 0
-154 244 333 0
-154 244 -156 0
-154 333 155 0
154 -244 -155 0
154 -333 156 0
155 249 -140 0
-155 -249 0
-155 140 0
156 249 -142 0
-156 -249 0
-156 142 0
-157 254 158 160 161 0
-157 -254 158 -160 161 0
157 -161 0
157 -254 160 0
157 -158 0
157 254 -160 0
-158 -252 -159 0
-158 252 159 0
158 252 -159 0
158 -252 159 0
159 -335 156 0
159 244 -155 0
159 244 -335 0
159 -155 156 0
-159 -244 -156 0
-159 335 155 0
-160 115 -116 0
-160 337 115 0
160 -115 0
160 -337 116 0
-161 256 162 163 165 0
-161 -256 -162 163 165 0
161 -165 0
161 -256 162 0
161 -163 0
161 256 -162 0
162 -339 115 0
162 115 -116 0
-162 -115 0
-162 339 116 0
-163 258 164 0
-163 -258 -164 0
163 -258 164 0
163 258 -164 0
-164 -215 -221 0
-164 215 341 0
-164 -215 160 0
164 215 -341 0
164 -215 221 -160 0
-165 263 166 168 169 0
-165 -263 166 -168 169 0
165 -169 0
165 -263 168 0
165 -166 0
165 263 -168 0
-166 -261 -167 0
-166 261 167 0
166 261 -167 0
166 -261 167 0
167 -215 -221 0
167 215 -344 0
167 -215 -162 0
-167 215 344 0
-167 -215 221 162 0
-168 125 -126 0
-168 346 125 0
168 -125 0
168 -346 126 0
-169 265 170 171 173 0
-169 -265 -170 171 173 0
169 -173 0
169 -265 170 0
169 -171 0
169 265 -170 0
170 -348 125 0
170 125 -126 0
-170 -125 0
-170 348 126 0
-171 267 172 0
-171 -267 -172 0
171 -267 172 0
171 267 -172 0
-172 215 -221 0
-172 -215 350 0
-172 215 168 0
172 -215 -350 0
172 215 221 -168 0
-173 269 174 175 181 0
-173 -269 -174 175 181 0
173 -181 0
173 -269 174 0
173 -175 0
173 269 -174 0
174 215 -170 0
174 -215 -352 0
174 215 -221 0
-174 -215 352 0
-174 215 221 170 0
-175 271 176 0
-175 -271 -176 0
175 -271 176 0
175 271 -176 0
-176 354 177 0
-176 177 179 -180 0
176 -177 0
176 -354 180 0
176 -354 -179 0
177 298 321 -178 0
177 321 -352 -178 0
-177 178 0
-177 -321 0
-177 -298 352 0
178 -215 -350 0
-178 215 0
-178 350 0
179 -298 -350 0
-179 298 0
-179 350 0
180 -215 352 0
-180 215 0
-180 -352 0
-181 276 182 186 187 0
-181 -276 182 -186 187 0
181 -187 0
181 -276 186 0
181 -182 0
181 276 -186 0
-182 -273 -183 0
-182 273 183 0
182 273 -183 0
182 -273 183 0
183 -356 185 0
183 184 -178 185 0
-183 -185 0
-183 356 -184 0
-183 356 178 0
184 -298 352 0
-184 298 0
-184 -352 0
185 298 321 -180 0
185 321 350 -180 0
-185 180 0
-185 -321 0
-185 -298 -350 0
-186 178 -180 0
-186 275 359 0
-186 359 -180 0
-186 275 178 0
186 -359 -178 0
186 -275 180 0
-187 279 188 189 192 0
-187 -279 -188 189 192 0
187 -192 0
187 -279 188 0
187 -189 0
187 279 -188 0
188 -362 -178 0
188 -278 180 0
188 -278 -362 0
188 -178 180 0
-188 362 -180 0
-188 278 178 0
-189 281 190 0
-189 -281 -190 0
189 -281 190 0
189 281 -190 0
-190 -180 191 0
-190 364 191 0
190 -191 0
190 -364 180 0
191 -244 249 -178 0
191 -249 -178 -186 0
-191 178 0
-191 -249 186 0
-191 244 249 0
-192 286 193 196 197 0
-192 -286 193 -196 197 0
192 -197 0
192 -286 196 0
192 -193 0
192 286 -196 0
-193 -283 -194 0
-193 283 194 0
193 283 -194 0
193 -283 194 0
194 -366 195 0
194 -178 195 0
-194 -195 0
-194 366 178 0
195 -244 249 -180 0
195 -249 -180 188 0
-195 180 0
-195 -249 -188 0
-195 244 249 0
-196 178 -180 0
-196 285 369 0
-196 369 -180 0
-196 285 178 0
196 -369 -178 0
196 -285 180 0
-197 -289 -198 199 0
-197 289 198 199 0
197 -199 0
197 -289 198 0
197 289 -198 0
198 -372 -178 0
198 -288 180 0
198 -288 -372 0
198 -178 180 0
-198 372 -180 0
-198 288 178 0
-199 291 -293 200 -202 0
-199 291 293 200 202 0
-199 -291 -293 -200 -202 0
-199 -291 293 -200 202 0
199 -291 200 0
199 291 -200 0
199 293 -202 0
199 -293 202 0
-200 -180 201 0
-200 374 201 0
200 -201 0
200 -374 180 0
201 243 -244 -178 0
201 -243 -178 -196 0
-201 178 0
-201 -243 196 0
-201 243 244 0
202 -376 203 0
202 -178 203 0
-202 -203 0
-202 376 178 0
203 243 -244 -180 0
203 -243 -180 198 0
-203 180 0
-203 -243 -198 0
-203 243 244 0
-204 -295 -205 0
-204 295 205 0
204 295 -205 0
204 -295 205 0
205 206 208 -210 -212 0
205 -206 -208 210 212 0
-205 208 212 0
-205 -206 -212 0
-205 -208 -210 0
-205 206 210 0
206 298 -303 -322 0
206 298 -303 -207 0
-206 -298 0
-206 303 0
-206 322 207 0
-207 330 335 0
207 -330 0
207 -335 0
208 298 -341 -356 0
208 298 -341 -209 0
-208 -298 0
-208 341 0
-208 356 209 0
-209 366 376 0
209 -366 0
209 -376 0
-210 298 306 211 0
-210 298 306 324 0
210 -298 0
210 -306 0
210 -324 -211 0
211 -328 -333 0
-211 328 0
-211 333 0
-212 298 344 213 0
-212 298 344 354 0
212 -298 0
212 -344 0
212 -354 -213 0
213 -364 -374 0
-213 364 0
-213 374 0
-383 0
2 0
382 0
214 0
215 0
216 0
217 0
218 0
219 0
220 0
221 0
222 0
223 0
224 0
225 0
226 0
227 0
228 0
229 0
230 0
231 0
232 0
233 0
234 0
235 0
236 0
237 0
238 0
239 0
240 0
241 0
242 0
243 0
244 0
245 0
246 0
247 0
248 0
249 0
250 0
251 0
252 0
253 0
254 0
255 0
256 0
257 0
258 0
259 0
260 0
261 0
262 0
263 0
264 0
265 0
266 0
267 0
268 0
269 0
270 0
271 0
272 0
273 0
274 0
275 0
276 0
277 0
278 0
279 0
280 0
281 0
282 0
283 0
284 0
285 0
286 0
287 0
288 0
289 0
290 0
291 0
292 0
293 0
294 0
3 0
3 0
295 0
4 0
-383 0

